10J3M/DAT/10J3MNNR-11.dat
10 3
15.9537 23.8927
24.672 38.5275
25.4852 18.5137
21.0491 48.7545
26.7203 28.9416
25.8834 10.9729
31.6361 36.4788
24.137 12.2186
30.6075 2.5665
25.2088 13.1144
233.9812