10J3M/SOL/10J3MNNR-11.sol
solution status: optimal solution found
objective value:                     83.7843666666666
x#1#3                                               1 	(obj:0)
x#2#1                              0.0821754755728499 	(obj:0)
x#2#3                                0.91782452442715 	(obj:0)
x#3#1                                               1 	(obj:0)
x#4#3                                               1 	(obj:0)
x#5#1                                               1 	(obj:0)
x#6#1                                               1 	(obj:0)
x#7#1                               0.115944548580051 	(obj:0)
x#7#2                               0.884055451419949 	(obj:0)
x#8#3                                               1 	(obj:0)
x#9#2                                               1 	(obj:0)
x#10#2                                              1 	(obj:0)
z                                    83.7843666666666 	(obj:1)
